param Vnom     := 1;
param Barra_SE := 1;

# Base de potencia de := 1MW
# Base de Tensión de := 12.66kV
#---------- Datos de las barras-------------------------------------------
param :  Ob :    PD        QD:=
          1      0          0    
          2      0.100      0.060
          3      0.090      0.040
          4      0.120      0.080
          5      0.060      0.030
          6      0.060      0.020
          7      0.200      0.100
          8      0.200      0.100
          9      0.060      0.020
         10      0.060      0.020
         11      0.045      0.030
         12      0.060      0.035
         13      0.060      0.035
         14      0.120      0.080
         15      0.060      0.010
         16      0.060      0.020
         17      0.060      0.020
         18      0.090      0.040
         19      0.090      0.040
         20      0.090      0.040
         21      0.090      0.040
         22      0.090      0.040
         23      0.090      0.050
         24      0.420      0.200
         25      0.420      0.200
         26      0.060      0.025
         27      0.060      0.025
         28      0.060      0.020
         29      0.120      0.070
         30      0.200      0.600
         31      0.150      0.070
         32      0.210      0.100
         33      0.060      0.040
         ;
#-----------------------------------------------------------------------
# Datos de líneas
# Barra inicial			: Ni
# Barra final			: Nj
# Resistencia			: R
# Reactancia inductiva	: X
#		  Ni   Nj   No.     R(pu)   X(pu)
param :     Ol:     linea       R               X              Imax:=
      1      2        1       0.00057526       0.00029324    6.57833
#      2      1        1       0.00057526       0.00029324    6.57833
      2      3        2       0.00307595       0.00156668    6.57833
#      3      2        2       0.00307595       0.00156668    6.57833
      3      4        3       0.00228357       0.001163      6.57833
#      4      3        3       0.00228357       0.001163      6.57833
      4      5        4       0.00237778       0.00121104    6.57833
#      5      4        4       0.00237778       0.00121104    6.57833
      5      6        5       0.00510995       0.00441115    6.57833
#      6      5        5       0.00510995       0.00441115    6.57833
      6      7        6       0.00116799       0.00386085    6.57833
#      7      6        6       0.00116799       0.00386085    6.57833
      7      8        7       0.00443860       0.00146685    6.57833
#      8      7        7       0.00443860       0.00146685    6.57833
      8      9        8       0.00642643       0.00461705    6.57833
#      9      8        8       0.00642643       0.00461705    6.57833
      9      10       9       0.00651378       0.00461705    6.57833
#     10      9        9       0.00651378       0.00461705    6.57833
     10      11       10      0.00122664       0.00040555    6.57833
#     11      10       10      0.00122664       0.00040555    6.57833
     11      12       11      0.00233598       0.00077242    6.57833
#     12      11       11      0.00233598       0.00077242    6.57833
     12      13       12      0.00915922       0.00720634    6.57833
#     13      12       12      0.00915922       0.00720634    6.57833
     13      14       13      0.00337918       0.00444796    6.57833
#     14      13       13      0.00337918       0.00444796    6.57833
     14      15       14      0.00368740       0.00328185    6.57833
#     15      14       14      0.00368740       0.00328185    6.57833
     15      16       15      0.00465635       0.00340039    6.57833
#     16      15       15      0.00465635       0.00340039    6.57833
     16      17       16      0.00804240       0.01073775    6.57833
#     17      16       16      0.00804240       0.01073775    6.57833
     17      18       17      0.00232100       0.00358133    6.57833
#     18      17       17      0.00232100       0.00358133    6.57833
      2      19       18      0.00102324       0.00097644    6.57833
#     19      2        18      0.00102324       0.00097644    6.57833
     19      20       19      0.00938508       0.00845668    6.57833
#     20      19       19      0.00938508       0.00845668    6.57833
     20      21       20      0.00255497       0.00298486    6.57833
#     21      20       20      0.00255497       0.00298486    6.57833
     21      22       21      0.00442301       0.00584805    6.57833
#     22      21       21      0.00442301       0.00584805    6.57833
      3      23       22      0.00281515       0.00192356    6.57833
#     23      3        22      0.00281515       0.00192356    6.57833
     23      24       23      0.00560285       0.00442425    6.57833
#     24      23       23      0.00560285       0.00442425    6.57833
     24      25       24      0.00560285       0.00441178    6.57833
#     25      24       24      0.00560285       0.00441178    6.57833
     6       26       25      0.00126719       0.00064514    6.57833
#     26       6       25      0.00126719       0.00064514    6.57833
     26      27       26      0.00177320       0.00091967    6.57833
#     27      26       26      0.00177320       0.00091967    6.57833
     27      28       27      0.00660674       0.00582621    6.57833
#     28      27       27      0.00660674       0.00582621    6.57833
     28      29       28      0.00501823       0.00437122    6.57833
#     29      28       28      0.00501823       0.00437122    6.57833
     29      30       29      0.00316642       0.00161285    6.57833
#     30      29       29      0.00316642       0.00161285    6.57833
     30      31       30      0.00608015       0.00600778    6.57833
#     31      30       30      0.00608015       0.00600778    6.57833
     31      32       31      0.00193729       0.00225799    6.57833
#     32      31       31      0.00193729       0.00225799    6.57833
     32      33       32      0.00212821       0.00330805    6.57833 ;
#    33      32       32      0.00212821       0.00330805    6.57833 ;
#----------------------------------------------------------------------------
for { (i,j) in Ol} 
{
	let Z2[i,j]  :=  R[i,j]^2+X[i,j]^2;
    let G[i,j]   :=  R[i,j]/Z2[i,j]   ;
    let B[i,j]   :=	-X[i,j]/Z2[i,j]   ;
}
#----------------------------------------------------------------------------